;  time  = 600
;  terms = 34
;  score = 0.859504132231405
(set-logic QF_FP)
(declare-const x0 (_ FloatingPoint 8 24))
(declare-const x1 (_ FloatingPoint 8 24))
(declare-const x2 (_ FloatingPoint 8 24))
(declare-const x3 (_ FloatingPoint 8 24))
(declare-const x4 (_ FloatingPoint 8 24))
(declare-const x5 (_ FloatingPoint 8 24))
(declare-const x6 (_ FloatingPoint 8 24))
(declare-const x7 (_ FloatingPoint 8 24))
(declare-const x8 (_ FloatingPoint 8 24))
(declare-const x9 (_ FloatingPoint 8 24))
(declare-const x10 (_ FloatingPoint 8 24))
(declare-const x11 (_ FloatingPoint 8 24))
(declare-const x12 (_ FloatingPoint 8 24))
(declare-const x13 (_ FloatingPoint 8 24))
(declare-const x14 (_ FloatingPoint 8 24))
(assert (fp.isSubnormal (fp.mul RNE (fp.mul RNE (fp.mul RNE (fp.sub RNE (fp.abs (fp.neg (fp.neg (fp.sub RNE (fp.sub RNE x6 x12) x14)))) x0) (fp.abs (fp.abs (fp.mul RNE (fp.abs (fp.add RNE x10 (fp.mul RNE x5 x1))) x13)))) (fp.mul RNE (fp.mul RNE (fp.neg x2) x5) x8)) (fp.mul RNE (fp.mul RNE (fp.sub RNE (fp.abs (fp.neg (fp.mul RNE x13 (fp.neg (fp.mul RNE x9 x6))))) (fp.mul RNE (fp.neg (fp.mul RNE (fp.abs (fp.sub RNE x12 x9)) (fp.neg (fp.mul RNE x12 x12)))) (fp.abs (fp.mul RNE (fp.abs (fp.add RNE x7 x7)) (fp.add RNE (fp.neg x1) (fp.mul RNE x3 x2)))))) x9) (fp.abs (fp.abs (fp.add RNE (fp.mul RNE x0 (fp.mul RNE (fp.neg x10) (fp.add RNE (fp.abs x11) (fp.mul RNE x14 x7)))) (fp.add RNE (fp.sub RNE (fp.sub RNE (fp.mul RNE x12 x9) (fp.neg x1)) (fp.add RNE (fp.mul RNE x14 x1) (fp.sub RNE x9 x4))) (fp.add RNE x8 (fp.mul RNE (fp.add RNE x12 x11) x4))))))))))
(check-sat)